(set-logic ALL)
(declare-fun var0 () String)
(assert (str.in_re var0 (re.++ (re.+ (re.union (str.to_re "00") (str.to_re "111"))) (re.++ (re.union (re.union (str.to_re "2") (str.to_re "333")) (re.union (str.to_re "44") (str.to_re "55"))) (re.++ (re.* (re.union (str.to_re "66") (str.to_re "7"))) (re.++ (re.union (re.* (str.to_re "88")) (re.* (str.to_re "99"))) (re.++ (re.union (re.+ (str.to_re "aaa")) (re.+ (str.to_re "bb"))) (re.++ (re.+ (re.+ (str.to_re "c"))) (re.++ (re.union (re.* (str.to_re "d")) (re.* (str.to_re "eee"))) (re.++ (re.union (re.union (str.to_re "ff") (str.to_re "g")) (re.union (str.to_re "h") (str.to_re "iii"))) (re.++ (re.union (re.+ (str.to_re "j")) (re.+ (str.to_re "k"))) (re.++ (re.* (re.+ (str.to_re "lll"))) (re.++ (re.union (re.union (str.to_re "m") (str.to_re "nn")) (re.union (str.to_re "oo") (str.to_re "pp"))) (re.++ (re.* (re.+ (str.to_re "qq"))) (re.++ (re.* (re.union (str.to_re "rr") (str.to_re "ss"))) (re.++ (re.* (re.union (str.to_re "t") (str.to_re "uuu"))) (re.++ (re.* (re.+ (str.to_re "v"))) (re.++ (re.+ (re.+ (str.to_re "ww"))) (re.++ (re.+ (re.union (str.to_re "xx") (str.to_re "yyy"))) (re.++ (re.+ (re.+ (str.to_re "z"))) (re.++ (re.+ (re.+ (str.to_re "AAA"))) (re.++ (re.union (re.* (str.to_re "B")) (re.* (str.to_re "C"))) (re.++ (re.+ (re.+ (str.to_re "D"))) (re.++ (re.* (re.union (str.to_re "EE") (str.to_re "F"))) (re.++ (re.union (re.union (str.to_re "GG") (str.to_re "HHH")) (re.union (str.to_re "II") (str.to_re "JJ"))) (re.++ (re.+ (re.union (str.to_re "KK") (str.to_re "L"))) (re.++ (re.* (re.+ (str.to_re "MM"))) (re.++ (re.* (re.* (str.to_re "NNN"))) (re.++ (re.+ (re.* (str.to_re "OOO"))) (re.++ (re.+ (re.+ (str.to_re "P"))) (re.++ (re.+ (re.+ (str.to_re "Q"))) (re.++ (re.* (re.+ (str.to_re "RR"))) (re.++ (re.+ (re.union (str.to_re "SS") (str.to_re "TTT"))) (re.++ (re.union (re.union (str.to_re "U") (str.to_re "V")) (re.union (str.to_re "WWW") (str.to_re "X"))) (re.++ (re.+ (re.union (str.to_re "YYY") (str.to_re "Z"))) (re.++ (re.union (re.* (str.to_re "!!!")) (re.* (str.to_re """"""""))) (re.++ (re.* (re.+ (str.to_re "#"))) (re.++ (re.* (re.* (str.to_re "$$"))) (re.++ (re.union (re.* (str.to_re "%%%")) (re.* (str.to_re "&"))) (re.++ (re.+ (re.union (str.to_re "'''") (str.to_re "("))) (re.++ (re.+ (re.union (str.to_re ")") (str.to_re "***"))) (re.++ (re.* (re.* (str.to_re "+++"))) (re.++ (re.* (re.+ (str.to_re ","))) (re.++ (re.union (re.union (str.to_re "--") (str.to_re ".")) (re.union (str.to_re "/") (str.to_re "::"))) (re.++ (re.union (re.+ (str.to_re ";;")) (re.+ (str.to_re "<<<"))) (re.++ (re.union (re.* (str.to_re "==")) (re.* (str.to_re ">"))) (re.++ (re.* (re.union (str.to_re "??") (str.to_re "@@@"))) (re.++ (re.* (re.* (str.to_re "["))) (re.++ (re.+ (re.union (str.to_re "\\\\") (str.to_re "]]]"))) (re.++ (re.* (re.+ (str.to_re "^^"))) (re.++ (re.+ (re.+ (str.to_re "__"))) (re.++ (re.* (re.+ (str.to_re "`"))) (re.++ (re.* (re.+ (str.to_re "{{{"))) (re.++ (re.+ (re.union (str.to_re "|") (str.to_re "}"))) (re.++ (re.* (re.* (str.to_re "~~"))) (re.++ (re.union (re.* (str.to_re "0")) (re.* (str.to_re "11"))) (re.++ (re.union (re.+ (str.to_re "2")) (re.+ (str.to_re "333"))) (re.++ (re.* (re.union (str.to_re "44") (str.to_re "555"))) (re.++ (re.+ (re.union (str.to_re "66") (str.to_re "7"))) (re.++ (re.+ (re.+ (str.to_re "888"))) (re.+ (re.union (str.to_re "99") (str.to_re "aaa")))))))))))))))))))))))))))))))))))))))))))))))))))))))))))))))
(check-sat)